p tdp 20 80
1 2
1 8
1 10
1 12
1 14
1 19
1 20
2 3
2 4
2 5
2 10
2 13
2 15
2 17
2 19
3 5
3 7
3 10
3 17
3 20
4 8
4 9
4 11
4 12
4 13
4 14
4 16
4 20
5 6
5 8
5 11
5 13
5 17
6 7
6 8
6 9
6 14
7 11
7 13
7 15
7 19
8 10
8 14
8 15
8 17
8 18
8 19
9 10
9 12
9 13
9 16
9 17
9 18
9 19
9 20
10 13
10 15
10 16
10 18
10 20
11 12
11 14
11 17
11 18
11 20
12 13
12 14
12 15
12 18
12 19
12 20
13 14
13 15
13 20
14 17
14 19
15 16
15 17
16 20
17 18
